c Reading file examples/loan_acquisition/mmc_encoding/encoding.dimacs
c Building 1-fold quantitative self-composition...
c ind 97  98  103  104  105  106  107  108  112  113 0
c previous ind: 443  444  447  450  451  454  455  458  459  462  463  466  469  470  473  474  477  478  481  482  485  488  489  492  493  496  497  500  501  504  505  508  509  512  513  514  516  517  518 0
c This is a CNF SAT formula in the DIMACS CNF format,
c produced with the bc2cnf translator by Tommi Junttila;
c see http://users.ics.aalto.fi/tjunttil/circuits/index.html
c phi_Gamma_det <-> 1
c phi_Gamma <-> 1
c phi_T_transitions <-> 1
c phi_T <-> 1
c phi_sim_leaves <-> 1
c phi_sim_transition <-> 1
c phi_sim <-> 1
c FORMULA <-> 1
c pi_0 <-> 2
c phi_T_transitions_consistency <-> 80
c tau_0_3_approved_1 <-> 97
c tau_0_3_approved_0 <-> 98
c tau_0_2_approved_1 <-> 103
c tau_0_2_approved_0 <-> 104
c tau_0_1_approved_1 <-> 105
c tau_0_1_approved_0 <-> 106
c tau_0_0_approved_1 <-> 107
c tau_0_0_approved_0 <-> 108
c phi_T_feature_det <-> 109
c lam_0_monthly_income <-> 112
c lam_0_age <-> 113
c phi_Gamma_val <-> 441
c monthly_income_P555200 <-> 443
c age_P6100 <-> 444
c monthly_income_P918300 <-> 447
c monthly_income_P488500 <-> 450
c age_P3200 <-> 451
c monthly_income_P729400 <-> 454
c age_P7200 <-> 455
c monthly_income_P788400 <-> 458
c age_P2700 <-> 459
c monthly_income_P450400 <-> 462
c age_P3000 <-> 463
c monthly_income_P125600 <-> 466
c monthly_income_P906800 <-> 469
c age_P4100 <-> 470
c monthly_income_P771100 <-> 473
c age_P6500 <-> 474
c monthly_income_P717100 <-> 477
c age_P6200 <-> 478
c monthly_income_P698400 <-> 481
c age_P4300 <-> 482
c monthly_income_P139500 <-> 485
c monthly_income_P588600 <-> 488
c age_P4000 <-> 489
c monthly_income_P494300 <-> 492
c age_P6300 <-> 493
c monthly_income_P133600 <-> 496
c age_P8000 <-> 497
c monthly_income_P786600 <-> 500
c age_P3600 <-> 501
c monthly_income_P442600 <-> 504
c age_P4700 <-> 505
c monthly_income_P124600 <-> 508
c age_P7100 <-> 509
c pi_approved_1 <-> 512
c approved_P100 <-> 512
c monthly_income_P481400 <-> 513
c age_P4600 <-> 514
c pi_approved_0 <-> 516
c approved_P0 <-> 516
c monthly_income_P415000 <-> 517
c age_P2500 <-> 518
c ind 443 444 447 450 451 454 455 458 459 462 463 466 469 470 473 474 477 478 481 482 485 488 489 492 493 496 497 500 501 504 505 508 509 512 513 514 516 517 518 0
p cnf 520 1447
1 0
2 -3 0
2 -12 0
-2 12 3 0
2 0
-3 4 0
-3 51 0
3 -51 -4 0
-4 5 0
-4 112 0
4 -112 -5 0
5 -6 0
5 -56 0
-5 56 6 0
6 -7 0
6 -35 0
-6 35 7 0
7 -8 0
7 -78 0
-7 78 8 0
8 -9 0
8 -62 0
-8 62 9 0
9 -10 0
9 -39 0
-9 39 10 0
10 -11 0
10 -41 0
-10 41 11 0
11 -64 0
11 -68 0
-11 68 64 0
12 -13 0
12 -26 0
-12 26 13 0
-13 14 0
-13 73 0
13 -73 -14 0
-14 15 0
-14 112 0
14 -112 -15 0
15 -16 0
15 -33 0
-15 33 16 0
16 -17 0
16 -58 0
-16 58 17 0
17 -18 0
17 -60 0
-17 60 18 0
18 -19 0
18 -37 0
-18 37 19 0
19 -20 0
19 -43 0
-19 43 20 0
20 -21 0
20 -66 0
-20 66 21 0
21 -22 0
21 -45 0
-21 45 22 0
22 -23 0
22 -47 0
-22 47 23 0
23 -24 0
23 -70 0
-23 70 24 0
24 -25 0
24 -48 0
-24 48 25 0
25 -71 0
25 -79 0
-25 79 71 0
26 -27 0
26 -49 0
-26 49 27 0
-27 28 0
-27 31 0
27 -31 -28 0
-28 29 0
-28 30 0
28 -30 -29 0
29 97 0
29 -512 0
-29 512 -97 0
30 98 0
30 -516 0
-30 516 -98 0
-31 32 0
-31 113 0
31 -113 -32 0
32 -33 0
32 -34 0
-32 34 33 0
-33 443 0
-33 444 0
33 -444 -443 0
34 -35 0
34 -36 0
-34 36 35 0
-35 454 0
-35 455 0
35 -455 -454 0
36 -37 0
36 -38 0
-36 38 37 0
-37 466 0
-37 509 0
37 -509 -466 0
38 -39 0
38 -40 0
-38 40 39 0
-39 473 0
-39 474 0
39 -474 -473 0
40 -41 0
40 -42 0
-40 42 41 0
-41 477 0
-41 478 0
41 -478 -477 0
42 -43 0
42 -44 0
-42 44 43 0
-43 485 0
-43 493 0
43 -493 -485 0
44 -45 0
44 -46 0
-44 46 45 0
-45 492 0
-45 493 0
45 -493 -492 0
46 -47 0
46 -48 0
-46 48 47 0
-47 496 0
-47 497 0
47 -497 -496 0
-48 508 0
-48 509 0
48 -509 -508 0
49 -50 0
49 -72 0
-49 72 50 0
-50 51 0
-50 54 0
50 -54 -51 0
-51 52 0
-51 53 0
51 -53 -52 0
52 105 0
52 -512 0
-52 512 -105 0
53 106 0
53 -516 0
-53 516 -106 0
-54 55 0
-54 113 0
54 -113 -55 0
55 -56 0
55 -57 0
-55 57 56 0
-56 447 0
-56 482 0
56 -482 -447 0
57 -58 0
57 -59 0
-57 59 58 0
-58 450 0
-58 451 0
58 -451 -450 0
59 -60 0
59 -61 0
-59 61 60 0
-60 462 0
-60 463 0
60 -463 -462 0
61 -62 0
61 -63 0
-61 63 62 0
-62 469 0
-62 470 0
62 -470 -469 0
63 -64 0
63 -65 0
-63 65 64 0
-64 481 0
-64 482 0
64 -482 -481 0
65 -66 0
65 -67 0
-65 67 66 0
-66 488 0
-66 489 0
66 -489 -488 0
67 -68 0
67 -69 0
-67 69 68 0
-68 500 0
-68 501 0
68 -501 -500 0
69 -70 0
69 -71 0
-69 71 70 0
-70 504 0
-70 505 0
70 -505 -504 0
-71 513 0
-71 514 0
71 -514 -513 0
-72 73 0
-72 76 0
72 -76 -73 0
-73 74 0
-73 75 0
73 -75 -74 0
74 107 0
74 -512 0
-74 512 -107 0
75 108 0
75 -516 0
-75 516 -108 0
-76 77 0
-76 113 0
76 -113 -77 0
77 -78 0
77 -79 0
-77 79 78 0
-78 458 0
-78 459 0
78 -459 -458 0
-79 517 0
-79 518 0
79 -518 -517 0
80 112 0
80 -81 0
-80 81 -112 0
80 0
-81 -97 0
-81 82 0
81 -82 97 0
-82 -98 0
-82 83 0
82 -83 98 0
-83 -103 0
-83 -104 0
83 104 103 0
84 112 0
84 -85 0
-84 85 -112 0
84 0
-85 86 0
-85 89 0
85 -89 -86 0
86 -87 0
86 -88 0
-86 88 87 0
-87 -106 0
-87 105 0
87 -105 106 0
-88 -105 0
-88 106 0
88 -106 105 0
89 -90 0
89 -91 0
-89 91 90 0
-90 -108 0
-90 107 0
90 -107 108 0
-91 -107 0
-91 108 0
91 -108 107 0
92 113 0
92 -93 0
-92 93 -113 0
92 0
-93 94 0
-93 99 0
93 -99 -94 0
94 -95 0
94 -96 0
-94 96 95 0
-95 -98 0
-95 97 0
95 -97 98 0
-96 -97 0
-96 98 0
96 -98 97 0
-99 85 0
-99 100 0
99 -100 -85 0
100 -101 0
100 -102 0
-100 102 101 0
-101 -104 0
-101 103 0
101 -103 104 0
-102 -103 0
-102 104 0
102 -104 103 0
109 -110 0
109 -111 0
-109 111 110 0
109 0
-110 -113 0
-110 112 0
110 -112 113 0
-111 -112 0
-111 113 0
111 -113 112 0
114 516 0
114 512 0
-114 -512 -516 0
114 0
115 447 0
115 443 0
-115 -443 -447 0
115 0
116 450 0
116 -117 0
-116 117 -450 0
116 0
-117 -447 0
-117 -443 0
117 443 447 0
118 454 0
118 -119 0
-118 119 -454 0
118 0
-119 -443 0
-119 120 0
119 -120 443 0
-120 -447 0
-120 -450 0
120 450 447 0
121 458 0
121 -122 0
-121 122 -458 0
121 0
-122 -443 0
-122 123 0
122 -123 443 0
-123 -447 0
-123 124 0
123 -124 447 0
-124 -450 0
-124 -454 0
124 454 450 0
125 462 0
125 -126 0
-125 126 -462 0
125 0
-126 -443 0
-126 127 0
126 -127 443 0
-127 -447 0
-127 128 0
127 -128 447 0
-128 -450 0
-128 129 0
128 -129 450 0
-129 -454 0
-129 -458 0
129 458 454 0
130 466 0
130 -131 0
-130 131 -466 0
130 0
-131 -443 0
-131 132 0
131 -132 443 0
-132 -447 0
-132 133 0
132 -133 447 0
-133 -450 0
-133 134 0
133 -134 450 0
-134 -454 0
-134 135 0
134 -135 454 0
-135 -458 0
-135 -462 0
135 462 458 0
136 469 0
136 -137 0
-136 137 -469 0
136 0
-137 -443 0
-137 138 0
137 -138 443 0
-138 -447 0
-138 139 0
138 -139 447 0
-139 -450 0
-139 140 0
139 -140 450 0
-140 -454 0
-140 141 0
140 -141 454 0
-141 -458 0
-141 142 0
141 -142 458 0
-142 -462 0
-142 -466 0
142 466 462 0
143 473 0
143 -144 0
-143 144 -473 0
143 0
-144 -443 0
-144 145 0
144 -145 443 0
-145 -447 0
-145 146 0
145 -146 447 0
-146 -450 0
-146 147 0
146 -147 450 0
-147 -454 0
-147 148 0
147 -148 454 0
-148 -458 0
-148 149 0
148 -149 458 0
-149 -462 0
-149 150 0
149 -150 462 0
-150 -466 0
-150 -469 0
150 469 466 0
151 477 0
151 -152 0
-151 152 -477 0
151 0
-152 -443 0
-152 153 0
152 -153 443 0
-153 -447 0
-153 154 0
153 -154 447 0
-154 -450 0
-154 155 0
154 -155 450 0
-155 -454 0
-155 156 0
155 -156 454 0
-156 -458 0
-156 157 0
156 -157 458 0
-157 -462 0
-157 158 0
157 -158 462 0
-158 -466 0
-158 159 0
158 -159 466 0
-159 -469 0
-159 -473 0
159 473 469 0
160 481 0
160 -161 0
-160 161 -481 0
160 0
-161 -443 0
-161 162 0
161 -162 443 0
-162 -447 0
-162 163 0
162 -163 447 0
-163 -450 0
-163 164 0
163 -164 450 0
-164 -454 0
-164 165 0
164 -165 454 0
-165 -458 0
-165 166 0
165 -166 458 0
-166 -462 0
-166 167 0
166 -167 462 0
-167 -466 0
-167 168 0
167 -168 466 0
-168 -469 0
-168 169 0
168 -169 469 0
-169 -473 0
-169 -477 0
169 477 473 0
170 485 0
170 -171 0
-170 171 -485 0
170 0
-171 -443 0
-171 172 0
171 -172 443 0
-172 -447 0
-172 173 0
172 -173 447 0
-173 -450 0
-173 174 0
173 -174 450 0
-174 -454 0
-174 175 0
174 -175 454 0
-175 -458 0
-175 176 0
175 -176 458 0
-176 -462 0
-176 177 0
176 -177 462 0
-177 -466 0
-177 178 0
177 -178 466 0
-178 -469 0
-178 179 0
178 -179 469 0
-179 -473 0
-179 180 0
179 -180 473 0
-180 -477 0
-180 -481 0
180 481 477 0
181 488 0
181 -182 0
-181 182 -488 0
181 0
-182 -443 0
-182 183 0
182 -183 443 0
-183 -447 0
-183 184 0
183 -184 447 0
-184 -450 0
-184 185 0
184 -185 450 0
-185 -454 0
-185 186 0
185 -186 454 0
-186 -458 0
-186 187 0
186 -187 458 0
-187 -462 0
-187 188 0
187 -188 462 0
-188 -466 0
-188 189 0
188 -189 466 0
-189 -469 0
-189 190 0
189 -190 469 0
-190 -473 0
-190 191 0
190 -191 473 0
-191 -477 0
-191 192 0
191 -192 477 0
-192 -481 0
-192 -485 0
192 485 481 0
193 492 0
193 -194 0
-193 194 -492 0
193 0
-194 -443 0
-194 195 0
194 -195 443 0
-195 -447 0
-195 196 0
195 -196 447 0
-196 -450 0
-196 197 0
196 -197 450 0
-197 -454 0
-197 198 0
197 -198 454 0
-198 -458 0
-198 199 0
198 -199 458 0
-199 -462 0
-199 200 0
199 -200 462 0
-200 -466 0
-200 201 0
200 -201 466 0
-201 -469 0
-201 202 0
201 -202 469 0
-202 -473 0
-202 203 0
202 -203 473 0
-203 -477 0
-203 204 0
203 -204 477 0
-204 -481 0
-204 205 0
204 -205 481 0
-205 -485 0
-205 -488 0
205 488 485 0
206 496 0
206 -207 0
-206 207 -496 0
206 0
-207 -443 0
-207 208 0
207 -208 443 0
-208 -447 0
-208 209 0
208 -209 447 0
-209 -450 0
-209 210 0
209 -210 450 0
-210 -454 0
-210 211 0
210 -211 454 0
-211 -458 0
-211 212 0
211 -212 458 0
-212 -462 0
-212 213 0
212 -213 462 0
-213 -466 0
-213 214 0
213 -214 466 0
-214 -469 0
-214 215 0
214 -215 469 0
-215 -473 0
-215 216 0
215 -216 473 0
-216 -477 0
-216 217 0
216 -217 477 0
-217 -481 0
-217 218 0
217 -218 481 0
-218 -485 0
-218 219 0
218 -219 485 0
-219 -488 0
-219 -492 0
219 492 488 0
220 500 0
220 -221 0
-220 221 -500 0
220 0
-221 -443 0
-221 222 0
221 -222 443 0
-222 -447 0
-222 223 0
222 -223 447 0
-223 -450 0
-223 224 0
223 -224 450 0
-224 -454 0
-224 225 0
224 -225 454 0
-225 -458 0
-225 226 0
225 -226 458 0
-226 -462 0
-226 227 0
226 -227 462 0
-227 -466 0
-227 228 0
227 -228 466 0
-228 -469 0
-228 229 0
228 -229 469 0
-229 -473 0
-229 230 0
229 -230 473 0
-230 -477 0
-230 231 0
230 -231 477 0
-231 -481 0
-231 232 0
231 -232 481 0
-232 -485 0
-232 233 0
232 -233 485 0
-233 -488 0
-233 234 0
233 -234 488 0
-234 -492 0
-234 -496 0
234 496 492 0
235 504 0
235 -236 0
-235 236 -504 0
235 0
-236 -443 0
-236 237 0
236 -237 443 0
-237 -447 0
-237 238 0
237 -238 447 0
-238 -450 0
-238 239 0
238 -239 450 0
-239 -454 0
-239 240 0
239 -240 454 0
-240 -458 0
-240 241 0
240 -241 458 0
-241 -462 0
-241 242 0
241 -242 462 0
-242 -466 0
-242 243 0
242 -243 466 0
-243 -469 0
-243 244 0
243 -244 469 0
-244 -473 0
-244 245 0
244 -245 473 0
-245 -477 0
-245 246 0
245 -246 477 0
-246 -481 0
-246 247 0
246 -247 481 0
-247 -485 0
-247 248 0
247 -248 485 0
-248 -488 0
-248 249 0
248 -249 488 0
-249 -492 0
-249 250 0
249 -250 492 0
-250 -496 0
-250 -500 0
250 500 496 0
251 508 0
251 -252 0
-251 252 -508 0
251 0
-252 -443 0
-252 253 0
252 -253 443 0
-253 -447 0
-253 254 0
253 -254 447 0
-254 -450 0
-254 255 0
254 -255 450 0
-255 -454 0
-255 256 0
255 -256 454 0
-256 -458 0
-256 257 0
256 -257 458 0
-257 -462 0
-257 258 0
257 -258 462 0
-258 -466 0
-258 259 0
258 -259 466 0
-259 -469 0
-259 260 0
259 -260 469 0
-260 -473 0
-260 261 0
260 -261 473 0
-261 -477 0
-261 262 0
261 -262 477 0
-262 -481 0
-262 263 0
262 -263 481 0
-263 -485 0
-263 264 0
263 -264 485 0
-264 -488 0
-264 265 0
264 -265 488 0
-265 -492 0
-265 266 0
265 -266 492 0
-266 -496 0
-266 267 0
266 -267 496 0
-267 -500 0
-267 -504 0
267 504 500 0
268 513 0
268 -269 0
-268 269 -513 0
268 0
-269 -443 0
-269 270 0
269 -270 443 0
-270 -447 0
-270 271 0
270 -271 447 0
-271 -450 0
-271 272 0
271 -272 450 0
-272 -454 0
-272 273 0
272 -273 454 0
-273 -458 0
-273 274 0
273 -274 458 0
-274 -462 0
-274 275 0
274 -275 462 0
-275 -466 0
-275 276 0
275 -276 466 0
-276 -469 0
-276 277 0
276 -277 469 0
-277 -473 0
-277 278 0
277 -278 473 0
-278 -477 0
-278 279 0
278 -279 477 0
-279 -481 0
-279 280 0
279 -280 481 0
-280 -485 0
-280 281 0
280 -281 485 0
-281 -488 0
-281 282 0
281 -282 488 0
-282 -492 0
-282 283 0
282 -283 492 0
-283 -496 0
-283 284 0
283 -284 496 0
-284 -500 0
-284 285 0
284 -285 500 0
-285 -504 0
-285 -508 0
285 508 504 0
286 517 0
286 -287 0
-286 287 -517 0
286 0
-287 -443 0
-287 288 0
287 -288 443 0
-288 -447 0
-288 289 0
288 -289 447 0
-289 -450 0
-289 290 0
289 -290 450 0
-290 -454 0
-290 291 0
290 -291 454 0
-291 -458 0
-291 292 0
291 -292 458 0
-292 -462 0
-292 293 0
292 -293 462 0
-293 -466 0
-293 294 0
293 -294 466 0
-294 -469 0
-294 295 0
294 -295 469 0
-295 -473 0
-295 296 0
295 -296 473 0
-296 -477 0
-296 297 0
296 -297 477 0
-297 -481 0
-297 298 0
297 -298 481 0
-298 -485 0
-298 299 0
298 -299 485 0
-299 -488 0
-299 300 0
299 -300 488 0
-300 -492 0
-300 301 0
300 -301 492 0
-301 -496 0
-301 302 0
301 -302 496 0
-302 -500 0
-302 303 0
302 -303 500 0
-303 -504 0
-303 304 0
303 -304 504 0
-304 -508 0
-304 -513 0
304 513 508 0
305 451 0
305 444 0
-305 -444 -451 0
305 0
306 455 0
306 -307 0
-306 307 -455 0
306 0
-307 -451 0
-307 -444 0
307 444 451 0
308 459 0
308 -309 0
-308 309 -459 0
308 0
-309 -444 0
-309 310 0
309 -310 444 0
-310 -451 0
-310 -455 0
310 455 451 0
311 463 0
311 -312 0
-311 312 -463 0
311 0
-312 -444 0
-312 313 0
312 -313 444 0
-313 -451 0
-313 314 0
313 -314 451 0
-314 -455 0
-314 -459 0
314 459 455 0
315 470 0
315 -316 0
-315 316 -470 0
315 0
-316 -444 0
-316 317 0
316 -317 444 0
-317 -451 0
-317 318 0
317 -318 451 0
-318 -455 0
-318 319 0
318 -319 455 0
-319 -459 0
-319 -463 0
319 463 459 0
320 474 0
320 -321 0
-320 321 -474 0
320 0
-321 -444 0
-321 322 0
321 -322 444 0
-322 -451 0
-322 323 0
322 -323 451 0
-323 -455 0
-323 324 0
323 -324 455 0
-324 -459 0
-324 325 0
324 -325 459 0
-325 -463 0
-325 -470 0
325 470 463 0
326 478 0
326 -327 0
-326 327 -478 0
326 0
-327 -444 0
-327 328 0
327 -328 444 0
-328 -451 0
-328 329 0
328 -329 451 0
-329 -455 0
-329 330 0
329 -330 455 0
-330 -459 0
-330 331 0
330 -331 459 0
-331 -463 0
-331 332 0
331 -332 463 0
-332 -470 0
-332 -474 0
332 474 470 0
333 482 0
333 -334 0
-333 334 -482 0
333 0
-334 -444 0
-334 335 0
334 -335 444 0
-335 -451 0
-335 336 0
335 -336 451 0
-336 -455 0
-336 337 0
336 -337 455 0
-337 -459 0
-337 338 0
337 -338 459 0
-338 -463 0
-338 339 0
338 -339 463 0
-339 -470 0
-339 340 0
339 -340 470 0
-340 -474 0
-340 -478 0
340 478 474 0
341 489 0
341 -342 0
-341 342 -489 0
341 0
-342 -444 0
-342 343 0
342 -343 444 0
-343 -451 0
-343 344 0
343 -344 451 0
-344 -455 0
-344 345 0
344 -345 455 0
-345 -459 0
-345 346 0
345 -346 459 0
-346 -463 0
-346 347 0
346 -347 463 0
-347 -470 0
-347 348 0
347 -348 470 0
-348 -474 0
-348 349 0
348 -349 474 0
-349 -478 0
-349 -482 0
349 482 478 0
350 493 0
350 -351 0
-350 351 -493 0
350 0
-351 -444 0
-351 352 0
351 -352 444 0
-352 -451 0
-352 353 0
352 -353 451 0
-353 -455 0
-353 354 0
353 -354 455 0
-354 -459 0
-354 355 0
354 -355 459 0
-355 -463 0
-355 356 0
355 -356 463 0
-356 -470 0
-356 357 0
356 -357 470 0
-357 -474 0
-357 358 0
357 -358 474 0
-358 -478 0
-358 359 0
358 -359 478 0
-359 -482 0
-359 -489 0
359 489 482 0
360 497 0
360 -361 0
-360 361 -497 0
360 0
-361 -444 0
-361 362 0
361 -362 444 0
-362 -451 0
-362 363 0
362 -363 451 0
-363 -455 0
-363 364 0
363 -364 455 0
-364 -459 0
-364 365 0
364 -365 459 0
-365 -463 0
-365 366 0
365 -366 463 0
-366 -470 0
-366 367 0
366 -367 470 0
-367 -474 0
-367 368 0
367 -368 474 0
-368 -478 0
-368 369 0
368 -369 478 0
-369 -482 0
-369 370 0
369 -370 482 0
-370 -489 0
-370 -493 0
370 493 489 0
371 501 0
371 -372 0
-371 372 -501 0
371 0
-372 -444 0
-372 373 0
372 -373 444 0
-373 -451 0
-373 374 0
373 -374 451 0
-374 -455 0
-374 375 0
374 -375 455 0
-375 -459 0
-375 376 0
375 -376 459 0
-376 -463 0
-376 377 0
376 -377 463 0
-377 -470 0
-377 378 0
377 -378 470 0
-378 -474 0
-378 379 0
378 -379 474 0
-379 -478 0
-379 380 0
379 -380 478 0
-380 -482 0
-380 381 0
380 -381 482 0
-381 -489 0
-381 382 0
381 -382 489 0
-382 -493 0
-382 -497 0
382 497 493 0
383 505 0
383 -384 0
-383 384 -505 0
383 0
-384 -444 0
-384 385 0
384 -385 444 0
-385 -451 0
-385 386 0
385 -386 451 0
-386 -455 0
-386 387 0
386 -387 455 0
-387 -459 0
-387 388 0
387 -388 459 0
-388 -463 0
-388 389 0
388 -389 463 0
-389 -470 0
-389 390 0
389 -390 470 0
-390 -474 0
-390 391 0
390 -391 474 0
-391 -478 0
-391 392 0
391 -392 478 0
-392 -482 0
-392 393 0
392 -393 482 0
-393 -489 0
-393 394 0
393 -394 489 0
-394 -493 0
-394 395 0
394 -395 493 0
-395 -497 0
-395 -501 0
395 501 497 0
396 509 0
396 -397 0
-396 397 -509 0
396 0
-397 -444 0
-397 398 0
397 -398 444 0
-398 -451 0
-398 399 0
398 -399 451 0
-399 -455 0
-399 400 0
399 -400 455 0
-400 -459 0
-400 401 0
400 -401 459 0
-401 -463 0
-401 402 0
401 -402 463 0
-402 -470 0
-402 403 0
402 -403 470 0
-403 -474 0
-403 404 0
403 -404 474 0
-404 -478 0
-404 405 0
404 -405 478 0
-405 -482 0
-405 406 0
405 -406 482 0
-406 -489 0
-406 407 0
406 -407 489 0
-407 -493 0
-407 408 0
407 -408 493 0
-408 -497 0
-408 409 0
408 -409 497 0
-409 -501 0
-409 -505 0
409 505 501 0
410 514 0
410 -411 0
-410 411 -514 0
410 0
-411 -444 0
-411 412 0
411 -412 444 0
-412 -451 0
-412 413 0
412 -413 451 0
-413 -455 0
-413 414 0
413 -414 455 0
-414 -459 0
-414 415 0
414 -415 459 0
-415 -463 0
-415 416 0
415 -416 463 0
-416 -470 0
-416 417 0
416 -417 470 0
-417 -474 0
-417 418 0
417 -418 474 0
-418 -478 0
-418 419 0
418 -419 478 0
-419 -482 0
-419 420 0
419 -420 482 0
-420 -489 0
-420 421 0
420 -421 489 0
-421 -493 0
-421 422 0
421 -422 493 0
-422 -497 0
-422 423 0
422 -423 497 0
-423 -501 0
-423 424 0
423 -424 501 0
-424 -505 0
-424 -509 0
424 509 505 0
425 518 0
425 -426 0
-425 426 -518 0
425 0
-426 -444 0
-426 427 0
426 -427 444 0
-427 -451 0
-427 428 0
427 -428 451 0
-428 -455 0
-428 429 0
428 -429 455 0
-429 -459 0
-429 430 0
429 -430 459 0
-430 -463 0
-430 431 0
430 -431 463 0
-431 -470 0
-431 432 0
431 -432 470 0
-432 -474 0
-432 433 0
432 -433 474 0
-433 -478 0
-433 434 0
433 -434 478 0
-434 -482 0
-434 435 0
434 -435 482 0
-435 -489 0
-435 436 0
435 -436 489 0
-436 -493 0
-436 437 0
436 -437 493 0
-437 -497 0
-437 438 0
437 -438 497 0
-438 -501 0
-438 439 0
438 -439 501 0
-439 -505 0
-439 440 0
439 -440 505 0
-440 -509 0
-440 -514 0
440 514 509 0
441 -442 0
441 -445 0
-441 445 442 0
441 0
-442 33 0
-442 512 0
442 -512 -33 0
445 -446 0
445 -448 0
-445 448 446 0
-446 56 0
-446 512 0
446 -512 -56 0
448 -449 0
448 -452 0
-448 452 449 0
-449 58 0
-449 512 0
449 -512 -58 0
452 -453 0
452 -456 0
-452 456 453 0
-453 35 0
-453 512 0
453 -512 -35 0
456 -457 0
456 -460 0
-456 460 457 0
-457 78 0
-457 516 0
457 -516 -78 0
460 -461 0
460 -464 0
-460 464 461 0
-461 60 0
-461 512 0
461 -512 -60 0
464 -465 0
464 -467 0
-464 467 465 0
-465 37 0
-465 512 0
465 -512 -37 0
467 -468 0
467 -471 0
-467 471 468 0
-468 62 0
-468 512 0
468 -512 -62 0
471 -472 0
471 -475 0
-471 475 472 0
-472 39 0
-472 512 0
472 -512 -39 0
475 -476 0
475 -479 0
-475 479 476 0
-476 41 0
-476 512 0
476 -512 -41 0
479 -480 0
479 -483 0
-479 483 480 0
-480 64 0
-480 512 0
480 -512 -64 0
483 -484 0
483 -486 0
-483 486 484 0
-484 43 0
-484 512 0
484 -512 -43 0
486 -487 0
486 -490 0
-486 490 487 0
-487 66 0
-487 512 0
487 -512 -66 0
490 -491 0
490 -494 0
-490 494 491 0
-491 45 0
-491 512 0
491 -512 -45 0
494 -495 0
494 -498 0
-494 498 495 0
-495 47 0
-495 512 0
495 -512 -47 0
498 -499 0
498 -502 0
-498 502 499 0
-499 68 0
-499 512 0
499 -512 -68 0
502 -503 0
502 -506 0
-502 506 503 0
-503 70 0
-503 512 0
503 -512 -70 0
506 -507 0
506 -510 0
-506 510 507 0
-507 48 0
-507 512 0
507 -512 -48 0
510 -511 0
510 -515 0
-510 515 511 0
-511 71 0
-511 512 0
511 -512 -71 0
-515 79 0
-515 516 0
515 -516 -79 0
